NAME : input200_7.txt .out.tour
COMMENT : Tour for input200_7.txt .tsp (Length 2978.3)
TYPE : TOUR
DIMENSION : 200
TOUR_SECTION
1
61
197
60
20
23
81
92
107
190
182
47
193
35
105
178
195
117
199
152
69
59
143
165
79
2
67
149
51
55
176
4
141
46
11
7
133
85
168
186
177
156
42
75
95
58
140
41
19
22
200
3
169
181
194
109
126
39
38
163
160
131
98
128
161
115
88
31
8
28
73
132
166
96
147
189
34
124
52
148
106
121
102
187
183
40
104
119
83
146
65
127
13
155
116
54
53
24
97
43
10
175
130
16
198
185
135
45
171
99
80
129
17
162
112
63
111
100
15
144
192
5
113
89
139
134
164
12
9
76
26
191
70
170
93
25
173
118
33
56
142
94
158
87
68
174
137
154
188
36
122
125
114
86
77
74
84
196
138
14
62
48
66
108
49
18
167
151
27
157
153
78
6
179
120
57
72
136
159
172
37
71
90
82
21
32
44
184
29
150
110
145
91
123
64
30
103
180
101
50
1
